# Generated by ConicBenchmarkUtilities.jl
VER
2

OBJSENSE
MIN

VAR
432 1
F 432

INT
52
11
12
13
14
15
16
17
18
19
20
21
22
23
24
25
26
27
28
29
30
31
32
33
34
45
46
47
48
49
50
51
52
53
54
55
56
57
58
59
60
61
62
63
64
205
206
207
208
209
210
211
212

CON
1134 1106
L= 1
L= 1
L= 1
L= 1
L= 1
L= 1
L= 1
L= 1
L= 1
L= 1
L= 1
L= 1
L= 1
L= 1
L= 1
L= 1
L= 1
L= 1
L= 1
L= 1
L= 1
L= 1
L= 1
L= 1
L= 1
L= 1
L= 1
L= 1
L= 1
L= 1
L= 1
L= 1
L= 1
L= 1
L= 1
L= 1
L+ 1
L+ 1
L+ 1
L+ 1
L+ 1
L+ 1
L+ 1
L+ 1
L+ 1
L+ 1
L+ 1
L= 1
L= 1
L= 1
L= 1
L= 1
L= 1
L= 1
L= 1
L= 1
L= 1
L= 1
L= 1
L= 1
L= 1
L= 1
L= 1
L= 1
L= 1
L= 1
L= 1
L+ 1
L+ 1
L+ 1
L= 1
L= 1
L= 1
L= 1
L= 1
L= 1
L= 1
L= 1
L= 1
L= 1
L= 1
L= 1
L= 1
L= 1
L= 1
L= 1
L= 1
L= 1
L+ 1
L+ 1
L+ 1
L+ 1
L+ 1
L+ 1
L+ 1
L+ 1
L+ 1
L+ 1
L+ 1
L+ 1
L+ 1
L+ 1
L+ 1
L+ 1
L+ 1
L+ 1
L+ 1
L+ 1
L+ 1
L+ 1
L+ 1
L+ 1
L+ 1
L+ 1
L+ 1
L+ 1
L+ 1
L+ 1
L+ 1
L+ 1
L+ 1
L+ 1
L+ 1
L+ 1
L+ 1
L+ 1
L+ 1
L+ 1
L+ 1
L+ 1
L+ 1
L+ 1
L+ 1
L+ 1
L+ 1
L+ 1
L+ 1
L+ 1
L+ 1
L+ 1
L+ 1
L+ 1
L+ 1
L+ 1
L+ 1
L+ 1
L+ 1
L+ 1
L+ 1
L+ 1
L+ 1
L+ 1
L+ 1
L+ 1
L+ 1
L+ 1
L+ 1
L+ 1
L+ 1
L+ 1
L= 1
L= 1
L= 1
L= 1
L= 1
L= 1
L= 1
L= 1
L= 1
L= 1
L= 1
L= 1
L= 1
L= 1
L= 1
L= 1
L= 1
L= 1
L= 1
L= 1
L= 1
L= 1
L= 1
L= 1
L= 1
L= 1
L= 1
L= 1
L= 1
L= 1
L= 1
L= 1
L= 1
L= 1
L= 1
L= 1
L= 1
L= 1
L= 1
L= 1
L= 1
L= 1
L= 1
L= 1
L= 1
L= 1
L= 1
L= 1
L= 1
L= 1
L= 1
L+ 1
L+ 1
L+ 1
L+ 1
L+ 1
L+ 1
L+ 1
L+ 1
L+ 1
L+ 1
L+ 1
L+ 1
L+ 1
L+ 1
L+ 1
L+ 1
L+ 1
L+ 1
L+ 1
L+ 1
L+ 1
L+ 1
L+ 1
L+ 1
L+ 1
L+ 1
L+ 1
L+ 1
L+ 1
L+ 1
L+ 1
L+ 1
L+ 1
L+ 1
L+ 1
L+ 1
L+ 1
L+ 1
L+ 1
L+ 1
L+ 1
L+ 1
L+ 1
L+ 1
L+ 1
L+ 1
L+ 1
L+ 1
L+ 1
L+ 1
L+ 1
L+ 1
L+ 1
L+ 1
L+ 1
L+ 1
L+ 1
L+ 1
L+ 1
L+ 1
L+ 1
L+ 1
L+ 1
L+ 1
L+ 1
L+ 1
L+ 1
L+ 1
L+ 1
L+ 1
L+ 1
L+ 1
L+ 1
L+ 1
L+ 1
L+ 1
L= 1
L= 1
L= 1
L= 1
L= 1
L= 1
L= 1
L= 1
L+ 1
L+ 1
L+ 1
L+ 1
L+ 1
L+ 1
L+ 1
L+ 1
L+ 1
L+ 1
L+ 1
L+ 1
L+ 1
L+ 1
L+ 1
L+ 1
L+ 1
L+ 1
L+ 1
L+ 1
L+ 1
L+ 1
L+ 1
L+ 1
L+ 1
L+ 1
L+ 1
L+ 1
L+ 1
L+ 1
L+ 1
L+ 1
L= 1
L= 1
L= 1
L= 1
L= 1
L= 1
L= 1
L= 1
L= 1
L= 1
L= 1
L= 1
L= 1
L= 1
L= 1
L= 1
L= 1
L= 1
L= 1
L= 1
L= 1
L= 1
L= 1
L= 1
L= 1
L= 1
L= 1
L= 1
L= 1
L= 1
L= 1
L= 1
L+ 1
L= 1
L= 1
L= 1
L= 1
L= 1
L= 1
L= 1
L= 1
L= 1
L= 1
L= 1
L= 1
L= 1
L= 1
L= 1
L= 1
L= 1
L= 1
L= 1
L= 1
L= 1
L= 1
EXP 3
L+ 1
L+ 1
L= 1
L= 1
L= 1
L= 1
L+ 1
L+ 1
L+ 1
L+ 1
EXP 3
L+ 1
L+ 1
L= 1
L= 1
L= 1
L= 1
L+ 1
L+ 1
L+ 1
L+ 1
L= 1
L= 1
L= 1
L= 1
L= 1
L+ 1
L+ 1
L+ 1
L+ 1
EXP 3
L+ 1
L+ 1
L= 1
L= 1
L= 1
L= 1
L+ 1
L+ 1
L+ 1
L+ 1
L= 1
L= 1
L= 1
L= 1
L= 1
L= 1
L= 1
L= 1
L+ 1
L+ 1
L+ 1
L+ 1
L+ 1
L+ 1
EXP 3
L+ 1
L+ 1
L= 1
L= 1
L= 1
L= 1
L+ 1
L+ 1
L+ 1
L+ 1
EXP 3
L+ 1
L+ 1
L= 1
L= 1
L= 1
L= 1
L+ 1
L+ 1
L+ 1
L+ 1
EXP 3
L+ 1
L+ 1
L= 1
L= 1
L= 1
L= 1
L+ 1
L+ 1
L+ 1
L+ 1
L= 1
L= 1
L= 1
L= 1
L= 1
L+ 1
L+ 1
L+ 1
L+ 1
L= 1
L= 1
L= 1
L= 1
L= 1
L+ 1
L+ 1
L+ 1
L+ 1
EXP 3
L+ 1
L+ 1
L= 1
L= 1
L= 1
L= 1
L+ 1
L+ 1
L+ 1
L+ 1
L= 1
L= 1
L= 1
L= 1
L= 1
L= 1
L= 1
L= 1
L+ 1
L+ 1
L+ 1
L+ 1
L+ 1
L+ 1
EXP 3
L+ 1
L+ 1
L= 1
L= 1
L= 1
L= 1
L+ 1
L+ 1
L+ 1
L+ 1
EXP 3
L+ 1
L+ 1
L= 1
L= 1
L= 1
L= 1
L+ 1
L+ 1
L+ 1
L+ 1
EXP 3
L+ 1
L+ 1
EXP 3
L+ 1
L+ 1
L= 1
L= 1
L= 1
L= 1
L= 1
L= 1
L+ 1
L+ 1
L+ 1
L+ 1
L+ 1
L+ 1
L= 1
L= 1
L= 1
L= 1
L= 1
L+ 1
L+ 1
L+ 1
L+ 1
L= 1
L= 1
L= 1
L= 1
L= 1
L+ 1
L+ 1
L+ 1
L+ 1
EXP 3
L+ 1
L+ 1
L= 1
L= 1
L= 1
L= 1
L+ 1
L+ 1
L+ 1
L+ 1
EXP 3
L+ 1
L+ 1
L= 1
L= 1
L= 1
L= 1
L+ 1
L+ 1
L+ 1
L+ 1
EXP 3
L+ 1
L+ 1
L= 1
L= 1
L= 1
L= 1
L+ 1
L+ 1
L+ 1
L+ 1
L= 1
L+ 1
L+ 1
L+ 1
L+ 1
L+ 1
L+ 1
L+ 1
L+ 1
L+ 1
L+ 1
L+ 1
L+ 1
L+ 1
L+ 1
L+ 1
L+ 1
L+ 1
L+ 1
L+ 1
L+ 1
L+ 1
L+ 1
L+ 1
L+ 1
L+ 1
L+ 1
L+ 1
L+ 1
L+ 1
L+ 1
L+ 1
L+ 1
L+ 1
L+ 1
L+ 1
L+ 1
L+ 1
L+ 1
L+ 1
L+ 1
L+ 1
L+ 1
L+ 1
L+ 1
L+ 1
L+ 1
L+ 1
L+ 1
L+ 1
L+ 1
L+ 1
L+ 1
L+ 1
L+ 1
L+ 1
L+ 1
L+ 1
L+ 1
L+ 1
L+ 1
L+ 1
L+ 1
L+ 1
L+ 1
L+ 1
L+ 1
L+ 1
L+ 1
L+ 1
L+ 1
L+ 1
L+ 1
L+ 1
L+ 1
L+ 1
L+ 1
L+ 1
L+ 1
L+ 1
L+ 1
L+ 1
L+ 1
L+ 1
L+ 1
L+ 1
L+ 1
L+ 1
L+ 1
L+ 1
L+ 1
L+ 1
L+ 1
L+ 1
L+ 1
L+ 1
L+ 1
L+ 1
L+ 1
L+ 1
L+ 1
L+ 1
L+ 1
L+ 1
L+ 1
L+ 1
L+ 1
L+ 1
L+ 1
L+ 1
L+ 1
L+ 1
L+ 1
L+ 1
L+ 1
L+ 1
L+ 1
L+ 1
L+ 1
L+ 1
L+ 1
L+ 1
L+ 1
L+ 1
L+ 1
L+ 1
L+ 1
L+ 1
L+ 1
L+ 1
L+ 1
L+ 1
L+ 1
L+ 1
L+ 1
L+ 1
L+ 1
L+ 1
L+ 1
L+ 1
L+ 1
L+ 1
L+ 1
L+ 1
L+ 1
L+ 1
L+ 1
L+ 1
L+ 1
L+ 1
L+ 1
L+ 1
L+ 1
L+ 1
L+ 1
L+ 1
L+ 1
L+ 1
L+ 1
L+ 1
L+ 1
L+ 1
L+ 1
L+ 1
L+ 1
L+ 1
L+ 1
L+ 1
L+ 1
L+ 1
L+ 1
L+ 1
L+ 1
L+ 1
L+ 1
L+ 1
L+ 1
L+ 1
L+ 1
L+ 1
L+ 1
L+ 1
L+ 1
L+ 1
L+ 1
L+ 1
L+ 1
L+ 1
L+ 1
L+ 1
L+ 1
L+ 1
L+ 1
L+ 1
L+ 1
L+ 1
L+ 1
L+ 1
L+ 1
L+ 1
L+ 1
L+ 1
L+ 1
L+ 1
L+ 1
L+ 1
L+ 1
L+ 1
L+ 1
L+ 1
L+ 1
L+ 1
L+ 1
L+ 1
L+ 1
L+ 1
L+ 1
L+ 1
L+ 1
L+ 1
L+ 1
L+ 1
L+ 1
L+ 1
L+ 1
L+ 1
L+ 1
L+ 1
L+ 1
L+ 1
L+ 1
L+ 1
L+ 1
L+ 1
L+ 1
L+ 1
L+ 1
L+ 1
L+ 1
L+ 1
L+ 1
L+ 1
L+ 1
L+ 1
L+ 1
L+ 1
L+ 1
L+ 1
L+ 1
L+ 1
L+ 1
L+ 1
L+ 1
L+ 1
L+ 1
L+ 1
L+ 1
L+ 1
L+ 1
L+ 1
L+ 1
L+ 1
L+ 1
L+ 1
L+ 1
L+ 1
L+ 1
L+ 1
L+ 1
L+ 1
L+ 1
L+ 1
L+ 1
L+ 1
L+ 1
L+ 1
L+ 1
L+ 1
L+ 1
L+ 1
L+ 1
L+ 1
L+ 1
L+ 1
L+ 1
L+ 1
L+ 1
L+ 1
L+ 1
L+ 1
L+ 1
L+ 1
L+ 1
L+ 1
L+ 1
L+ 1
L+ 1
L+ 1
L+ 1
L+ 1
L+ 1
L+ 1
L+ 1
L+ 1
L+ 1
L+ 1
L+ 1
L+ 1
L+ 1
L+ 1
L+ 1
L+ 1
L+ 1
L+ 1
L+ 1
L+ 1
L+ 1
L+ 1
L+ 1
L+ 1
L+ 1
L+ 1
L+ 1
L+ 1
L+ 1
L+ 1
L+ 1
L+ 1
L+ 1
L+ 1
L+ 1
L+ 1
L+ 1
L+ 1
L+ 1
L+ 1
L+ 1
L+ 1
L+ 1
L+ 1
L+ 1
L+ 1
L+ 1
L+ 1
L+ 1
L+ 1
L+ 1
L+ 1
L+ 1
L+ 1
L+ 1
L+ 1
L+ 1
L+ 1
L+ 1
L+ 1
L+ 1
L+ 1
L+ 1
L+ 1
L+ 1
L+ 1
L+ 1
L+ 1
L+ 1
L+ 1
L+ 1
L+ 1
L+ 1
L+ 1
L+ 1
L+ 1
L+ 1
L+ 1
L+ 1
L+ 1
L+ 1
L+ 1
L+ 1
L+ 1
L+ 1
L+ 1
L+ 1
L+ 1
L+ 1
L+ 1
L+ 1
L+ 1
L+ 1
L+ 1
L+ 1
L+ 1
L+ 1
L+ 1
L+ 1
L+ 1
L+ 1
L+ 1
L+ 1
L+ 1
L+ 1
L+ 1
L+ 1
L+ 1
L+ 1
L+ 1
L+ 1
L+ 1
L+ 1
L+ 1
L+ 1
L+ 1
L+ 1
L+ 1
L+ 1
L+ 1
L+ 1
L+ 1
L+ 1
L+ 1
L+ 1
L+ 1
L+ 1
L+ 1
L+ 1
L+ 1
L+ 1
L+ 1
L+ 1
L+ 1
L+ 1
L+ 1
L+ 1
L+ 1
L+ 1
L+ 1
L+ 1
L+ 1
L+ 1
L+ 1
L+ 1
L+ 1
L+ 1
L+ 1
L+ 1
L+ 1
L+ 1
L+ 1
L+ 1
L+ 1
L+ 1
L+ 1
L+ 1
L+ 1
L+ 1
L+ 1
L+ 1
L+ 1
L+ 1
L+ 1
L+ 1
L+ 1
L+ 1
L+ 1
L+ 1
L+ 1
L+ 1
L+ 1
L+ 1
L+ 1
L+ 1
L+ 1
L+ 1
L+ 1
L+ 1
L+ 1
L+ 1
L+ 1
L+ 1
L+ 1
L+ 1
L+ 1
L+ 1
L+ 1
L+ 1
L+ 1
L+ 1
L+ 1
L+ 1
L+ 1
L+ 1
L+ 1
L+ 1
L+ 1
L+ 1
L+ 1
L+ 1
L+ 1
L+ 1
L+ 1
L+ 1

OBJACOORD
1
65 -1.0

ACOORD
2000
0 0 -10.0
1 0 1.0
42 0 -1.0
47 0 1.0
359 0 -10.0
661 0 1.0
0 1 -15.0
6 1 1.0
43 1 -1.0
49 1 1.0
359 1 -15.0
666 1 1.0
0 2 -18.0
10 2 1.0
44 2 -1.0
51 2 1.0
359 2 -18.0
670 2 1.0
0 3 -19.0
22 3 1.0
45 3 -1.0
55 3 1.0
359 3 -19.0
682 3 1.0
0 4 35.0
26 4 1.0
36 4 1.0
56 4 -1.0
686 4 1.0
0 5 28.0
28 5 1.0
37 5 1.0
57 5 -1.0
688 5 1.0
0 6 -16.0
29 6 1.0
46 6 -1.0
58 6 1.0
359 6 -16.0
689 6 1.0
0 7 2.0
32 7 1.0
38 7 1.0
368 7 -1.0
692 7 1.0
0 8 3.0
33 8 1.0
39 8 1.0
369 8 -1.0
693 8 1.0
0 9 5.0
34 9 1.0
40 9 1.0
370 9 -1.0
694 9 1.0
0 10 4.0
35 10 1.0
41 10 1.0
371 10 -1.0
695 10 1.0
0 11 -6.0
89 11 148.75
129 11 175.0
212 11 35.0
256 11 10.0
296 11 6.0
328 11 -6.0
360 11 1.0
897 11 1.0
898 11 -1.0
0 12 -40.0
90 12 148.75
130 12 175.0
213 12 35.0
257 12 50.0
297 12 40.0
329 12 -40.0
360 12 1.0
899 12 1.0
900 12 -1.0
0 13 -46.0
91 13 148.75
131 13 175.0
214 13 35.0
258 13 50.0
298 13 46.0
330 13 -46.0
360 13 1.0
901 13 1.0
902 13 -1.0
0 14 -7.0
93 14 254.045833333333
133 14 175.0
216 14 35.0
220 14 61.0
260 14 40.0
300 14 7.0
332 14 -7.0
361 14 1.0
905 14 1.0
906 14 -1.0
0 15 -30.0
94 15 254.045833333333
134 15 175.0
217 15 35.0
221 15 61.0
261 15 60.0
301 15 30.0
333 15 -30.0
361 15 1.0
907 15 1.0
908 15 -1.0
0 16 -37.0
95 16 254.045833333333
135 16 175.0
218 16 35.0
222 16 61.0
262 16 60.0
302 16 37.0
334 16 -37.0
361 16 1.0
909 16 1.0
910 16 -1.0
0 17 -7.0
97 17 20.4166666666667
101 17 20.4166666666667
137 17 20.8333333333333
224 17 25.0
264 17 15.0
304 17 7.0
336 17 -7.0
362 17 1.0
913 17 1.0
914 17 -1.0
0 18 -15.0
98 18 20.4166666666667
102 18 20.4166666666667
138 18 20.8333333333333
225 18 25.0
265 18 25.0
305 18 15.0
337 18 -15.0
362 18 1.0
915 18 1.0
916 18 -1.0
0 19 -22.0
99 19 20.4166666666667
103 19 20.4166666666667
139 19 20.8333333333333
226 19 25.0
266 19 25.0
306 19 22.0
338 19 -22.0
362 19 1.0
917 19 1.0
918 19 -1.0
0 20 -11.0
105 20 18.75
141 20 20.8333333333333
228 20 25.0
268 20 15.0
308 20 11.0
340 20 -11.0
363 20 1.0
921 20 1.0
922 20 -1.0
0 21 -13.0
106 21 18.75
142 21 20.8333333333333
229 21 25.0
269 21 20.0
309 21 13.0
341 21 -13.0
363 21 1.0
923 21 1.0
924 21 -1.0
0 22 -24.0
107 22 18.75
143 22 20.8333333333333
230 22 25.0
270 22 20.0
310 22 24.0
342 22 -24.0
363 22 1.0
925 22 1.0
926 22 -1.0
0 23 -10.0
109 23 17.8125
113 23 17.8125
145 23 18.75
232 23 25.0
272 23 10.0
312 23 10.0
344 23 -10.0
364 23 1.0
929 23 1.0
930 23 -1.0
0 24 -13.0
110 24 17.8125
114 24 17.8125
146 24 18.75
233 24 25.0
273 24 20.0
313 24 13.0
345 24 -13.0
364 24 1.0
931 24 1.0
932 24 -1.0
0 25 -23.0
111 25 17.8125
115 25 17.8125
147 25 18.75
234 25 25.0
274 25 20.0
314 25 23.0
346 25 -23.0
364 25 1.0
933 25 1.0
934 25 -1.0
0 26 -9.0
117 26 66.9375
149 26 18.75
236 26 25.0
240 26 24.0
276 26 20.0
316 26 9.0
348 26 -9.0
365 26 1.0
937 26 1.0
938 26 -1.0
0 27 -30.0
118 27 66.9375
150 27 18.75
237 27 25.0
241 27 24.0
277 27 55.0
317 27 30.0
349 27 -30.0
365 27 1.0
939 27 1.0
940 27 -1.0
0 28 -39.0
119 28 66.9375
151 28 18.75
238 28 25.0
242 28 24.0
278 28 55.0
318 28 39.0
350 28 -39.0
365 28 1.0
941 28 1.0
942 28 -1.0
0 29 -8.0
121 29 94.4571428571429
153 29 60.0
244 29 24.0
248 29 30.0
280 29 25.0
320 29 8.0
352 29 -8.0
366 29 1.0
945 29 1.0
946 29 -1.0
0 30 -20.0
122 30 94.4571428571429
154 30 60.0
245 30 24.0
249 30 30.0
281 30 50.0
321 30 20.0
353 30 -20.0
366 30 1.0
947 30 1.0
948 30 -1.0
0 31 -28.0
123 31 94.4571428571429
155 31 60.0
246 31 24.0
250 31 30.0
282 31 50.0
322 31 28.0
354 31 -28.0
366 31 1.0
949 31 1.0
950 31 -1.0
0 32 -8.0
125 32 39.4285714285714
157 32 42.8571428571429
252 32 30.0
284 32 15.0
324 32 8.0
356 32 -8.0
367 32 1.0
953 32 1.0
954 32 -1.0
0 33 -15.0
126 33 39.4285714285714
158 33 42.8571428571429
253 33 30.0
285 33 35.0
325 33 15.0
357 33 -15.0
367 33 1.0
955 33 1.0
956 33 -1.0
0 34 -23.0
127 34 39.4285714285714
159 34 42.8571428571429
254 34 30.0
286 34 35.0
326 34 23.0
358 34 -23.0
367 34 1.0
957 34 1.0
958 34 -1.0
0 35 5.0
374 35 -1.0
966 35 1.0
0 36 200.0
521 36 1.0
999 36 1.0
0 37 250.0
536 37 1.0
1000 37 1.0
0 38 200.0
549 38 1.0
1001 38 1.0
0 39 700.0
569 39 1.0
1002 39 1.0
0 40 400.0
580 40 1.0
1003 40 1.0
0 41 500.0
589 41 1.0
1004 41 1.0
0 42 400.0
602 42 1.0
1005 42 1.0
0 43 600.0
615 43 1.0
1006 43 1.0
0 44 700.0
628 44 1.0
1007 44 1.0
0 45 -5.0
382 45 1.0
383 45 1.0
385 45 1.0
391 45 10.0
392 45 -10.0
393 45 2.39789527279837
394 45 -2.39789527279837
633 45 1.0
643 45 1.0
644 45 1.0
645 45 1.0
1094 45 1.0
1095 45 -1.0
0 46 -8.0
395 46 1.0
396 46 1.0
398 46 1.0
404 46 10.0
405 46 -10.0
406 46 2.87747432735804
407 46 -2.87747432735804
633 46 1.0
643 46 1.0
644 46 1.0
645 46 1.0
1096 46 1.0
1097 46 -1.0
0 47 -6.0
413 47 2.87747432735804
414 47 -2.87747432735804
415 47 2.15810574551853
416 47 -2.15810574551853
634 47 -1.0
643 47 -1.0
646 47 1.0
647 47 1.0
1098 47 1.0
1099 47 -1.0
0 48 -10.0
417 48 1.0
418 48 1.0
420 48 1.0
426 48 2.87747432735804
427 48 -2.87747432735804
428 48 2.03277599268042
429 48 -2.03277599268042
637 48 -1.0
644 48 -1.0
648 48 1.0
1100 48 1.0
1101 48 -1.0
0 49 -6.0
438 49 2.87747432735804
439 49 -2.87747432735804
440 49 7.0
441 49 -7.0
442 49 3.5
443 49 -3.5
639 49 -1.0
645 49 -1.0
649 49 1.0
650 49 1.0
651 49 1.0
1102 49 1.0
1103 49 -1.0
0 50 -7.0
444 50 1.0
445 50 1.0
447 50 1.0
453 50 2.15810574551853
454 50 -2.15810574551853
455 50 1.43746550029693
456 50 -1.43746550029693
634 50 1.0
635 50 -1.0
646 50 -1.0
652 50 1.0
1104 50 1.0
1105 50 -1.0
0 51 -4.0
457 51 1.0
458 51 1.0
460 51 1.0
466 51 2.15810574551853
467 51 -2.15810574551853
468 51 1.03497516021379
469 51 -1.03497516021379
634 51 1.0
636 51 -1.0
647 51 -1.0
653 51 1.0
1106 51 1.0
1107 51 -1.0
0 52 -5.0
470 52 1.0
471 52 1.0
473 52 1.0
479 52 2.03277599268042
480 52 -2.03277599268042
481 52 1.10947836929589
482 52 -1.10947836929589
637 52 1.0
638 52 -1.0
648 52 -1.0
654 52 1.0
655 52 1.0
1108 52 1.0
1109 52 -1.0
0 53 -2.0
488 53 3.5
489 53 -3.5
490 53 3.15
491 53 -3.15
639 53 1.0
640 53 -1.0
649 53 -1.0
1110 53 1.0
1111 53 -1.0
0 54 -4.0
497 54 3.5
498 54 -3.5
499 54 2.1
500 54 -2.1
639 54 1.0
641 54 -1.0
650 54 -1.0
656 54 1.0
657 54 1.0
1112 54 1.0
1113 54 -1.0
0 55 -3.0
501 55 1.0
502 55 1.0
504 55 1.0
510 55 3.5
511 55 -3.5
512 55 1.6544851364539
513 55 -1.6544851364539
639 55 1.0
642 55 -1.0
651 55 -1.0
658 55 1.0
659 55 1.0
660 55 1.0
1114 55 1.0
1115 55 -1.0
0 56 -7.0
522 56 1.43746550029693
523 56 -1.43746550029693
524 56 5.0
525 56 -5.0
526 56 5.0
527 56 -5.0
635 56 1.0
652 56 -1.0
1116 56 1.0
1117 56 -1.0
0 57 -3.0
528 57 1.0
529 57 1.0
531 57 1.0
537 57 1.03497516021379
538 57 -1.03497516021379
539 57 0.710483612536911
540 57 -0.710483612536911
636 57 1.0
653 57 -1.0
1118 57 1.0
1119 57 -1.0
0 58 -2.0
541 58 1.0
542 58 1.0
544 58 1.0
550 58 1.10947836929589
551 58 -1.10947836929589
552 58 0.522508489006913
553 58 -0.522508489006913
638 58 1.0
654 58 -1.0
1120 58 1.0
1121 58 -1.0
0 59 -4.0
554 59 1.0
555 59 1.0
557 59 1.0
559 59 1.0
560 59 1.0
562 59 1.0
570 59 1.10947836929589
571 59 -1.10947836929589
572 59 8.15
573 59 -8.15
574 59 1.43894002153683
575 59 -1.43894002153683
638 59 1.0
640 59 1.0
655 59 -1.0
1122 59 1.0
1123 59 -1.0
0 60 -2.0
581 60 2.1
582 60 -2.1
583 60 2.1
584 60 -2.1
641 60 1.0
656 60 -1.0
1124 60 1.0
1125 60 -1.0
0 61 -3.0
590 61 2.1
591 61 -2.1
592 61 2.1
593 61 -2.1
641 61 1.0
657 61 -1.0
1126 61 1.0
1127 61 -1.0
0 62 -5.0
594 62 1.0
595 62 1.0
597 62 1.0
603 62 1.6544851364539
604 62 -1.6544851364539
605 62 0.732188035236726
606 62 -0.732188035236726
642 62 1.0
658 62 -1.0
1128 62 1.0
1129 62 -1.0
0 63 -2.0
607 63 1.0
608 63 1.0
610 63 1.0
616 63 1.6544851364539
617 63 -1.6544851364539
618 63 0.781000570919175
619 63 -0.781000570919175
642 63 1.0
659 63 -1.0
1130 63 1.0
1131 63 -1.0
0 64 -8.0
620 64 1.0
621 64 1.0
623 64 1.0
629 64 1.6544851364539
630 64 -1.6544851364539
631 64 0.829813106601623
632 64 -0.829813106601623
642 64 1.0
660 64 -1.0
1132 64 1.0
1133 64 -1.0
0 65 -1.0
1 66 -0.2
696 66 1.0
2 67 1.0
47 67 -1.0
59 67 1.0
200 67 1.0
662 67 1.0
2 68 -0.2
71 68 1.0
697 68 1.0
3 69 1.0
47 69 -1.0
60 69 1.0
201 69 1.0
663 69 1.0
3 70 -0.2
67 70 -1.0
73 70 1.0
698 70 1.0
4 71 1.0
48 71 1.0
59 71 -1.0
664 71 1.0
4 72 -0.2
70 72 1.0
699 72 1.0
5 73 1.0
48 73 -1.0
368 73 1.0
665 73 1.0
5 74 -0.2
700 74 1.0
6 75 -0.5
701 75 1.0
7 76 1.0
49 76 -1.0
60 76 1.0
202 76 1.0
667 76 1.0
7 77 -0.5
67 77 1.0
702 77 1.0
8 78 1.0
50 78 1.0
60 78 -1.0
668 78 1.0
8 79 -0.7
72 79 1.0
703 79 1.0
9 80 1.0
50 80 -1.0
369 80 1.0
669 80 1.0
9 81 -0.7
704 81 1.0
10 82 -1.2
705 82 1.0
11 83 1.0
51 83 -1.0
61 83 1.0
203 83 1.0
671 83 1.0
11 84 -1.2
76 84 1.0
706 84 1.0
12 85 1.0
49 85 1.0
61 85 -1.0
672 85 1.0
12 86 -0.5
74 86 1.0
707 86 1.0
13 87 1.0
50 87 1.0
61 87 -1.0
673 87 1.0
13 88 -0.7
75 88 1.0
708 88 1.0
14 89 1.0
51 89 -1.0
62 89 1.0
204 89 1.0
674 89 1.0
14 90 -1.2
78 90 1.0
709 90 1.0
15 91 1.0
52 91 1.0
62 91 -1.0
675 91 1.0
15 92 -1.2
77 92 1.0
710 92 1.0
16 93 1.0
52 93 -1.0
64 93 1.0
206 93 1.0
676 93 1.0
16 94 -1.2
68 94 -1.0
83 94 1.0
711 94 1.0
17 95 1.0
52 95 -1.0
63 95 1.0
205 95 1.0
677 95 1.0
17 96 -1.2
81 96 1.0
712 96 1.0
18 97 1.0
53 97 1.0
63 97 -1.0
678 97 1.0
18 98 -0.3
79 98 1.0
713 98 1.0
19 99 1.0
54 99 1.0
63 99 -1.0
679 99 1.0
19 100 -0.9
80 100 1.0
714 100 1.0
20 101 1.0
53 101 -1.0
370 101 1.0
680 101 1.0
20 102 -0.3
715 102 1.0
21 103 1.0
54 103 -1.0
371 103 1.0
681 103 1.0
21 104 -0.9
716 104 1.0
22 105 -0.4
717 105 1.0
23 106 1.0
55 106 -1.0
64 106 1.0
207 106 1.0
683 106 1.0
23 107 -0.4
68 107 1.0
718 107 1.0
24 108 1.0
55 108 -1.0
65 108 1.0
208 108 1.0
684 108 1.0
24 109 -0.4
69 109 -1.0
85 109 1.0
719 109 1.0
25 110 1.0
56 110 1.0
64 110 -1.0
685 110 1.0
25 111 -1.6
82 111 1.0
720 111 1.0
26 112 -1.6
721 112 1.0
27 113 1.0
57 113 1.0
65 113 -1.0
687 113 1.0
27 114 -1.1
84 114 1.0
722 114 1.0
28 115 -1.1
723 115 1.0
29 116 -0.7
724 116 1.0
30 117 1.0
58 117 -1.0
66 117 1.0
210 117 1.0
690 117 1.0
30 118 -0.7
87 118 1.0
725 118 1.0
31 119 1.0
65 119 1.0
66 119 -1.0
209 119 1.0
691 119 1.0
31 120 -0.7
69 120 1.0
86 120 1.0
726 120 1.0
32 121 -0.2
727 121 1.0
33 122 -0.7
728 122 1.0
34 123 -0.3
729 123 1.0
35 124 -0.9
730 124 1.0
59 125 -1.0
731 125 1.0
60 126 -1.0
732 126 1.0
61 127 -1.0
733 127 1.0
62 128 -1.0
734 128 1.0
63 129 -1.0
735 129 1.0
64 130 -1.0
736 130 1.0
65 131 -1.0
737 131 1.0
66 132 -1.0
738 132 1.0
70 133 -1.0
88 133 -1.0
160 133 1.0
799 133 1.0
70 134 -1.0
89 134 -1.0
161 134 1.0
800 134 1.0
70 135 -1.0
90 135 -1.0
162 135 1.0
801 135 1.0
70 136 -1.0
91 136 -1.0
163 136 1.0
802 136 1.0
71 137 -1.0
128 137 -1.0
160 137 -0.8
791 137 1.0
71 138 -1.0
129 138 -1.0
161 138 -0.85
792 138 1.0
71 139 -1.0
130 139 -1.0
162 139 -0.8
793 139 1.0
71 140 -1.0
131 140 -1.0
163 140 -0.85
794 140 1.0
72 141 -1.0
92 141 -1.0
164 141 1.0
803 141 1.0
72 142 -1.0
93 142 -1.0
165 142 1.0
804 142 1.0
72 143 -1.0
94 143 -1.0
166 143 1.0
805 143 1.0
72 144 -1.0
95 144 -1.0
167 144 1.0
806 144 1.0
73 145 -1.0
132 145 -1.0
164 145 -0.9
795 145 1.0
73 146 -1.0
133 146 -1.0
165 146 -0.95
796 146 1.0
73 147 -1.0
134 147 -1.0
166 147 -0.9
797 147 1.0
73 148 -1.0
135 148 -1.0
167 148 -0.95
798 148 1.0
74 149 -1.0
96 149 -1.0
168 149 1.0
811 149 1.0
74 150 -1.0
97 150 -1.0
169 150 1.0
812 150 1.0
74 151 -1.0
98 151 -1.0
170 151 1.0
813 151 1.0
74 152 -1.0
99 152 -1.0
171 152 1.0
814 152 1.0
75 153 -1.0
100 153 -1.0
172 153 1.0
815 153 1.0
75 154 -1.0
101 154 -1.0
173 154 1.0
816 154 1.0
75 155 -1.0
102 155 -1.0
174 155 1.0
817 155 1.0
75 156 -1.0
103 156 -1.0
175 156 1.0
818 156 1.0
76 157 -1.0
136 157 -1.0
168 157 -0.85
172 157 -0.85
807 157 1.0
76 158 -1.0
137 158 -1.0
169 158 -0.98
173 158 -0.98
808 158 1.0
76 159 -1.0
138 159 -1.0
170 159 -0.85
174 159 -0.85
809 159 1.0
76 160 -1.0
139 160 -1.0
171 160 -0.98
175 160 -0.98
810 160 1.0
77 161 -1.0
104 161 -1.0
176 161 1.0
823 161 1.0
77 162 -1.0
105 162 -1.0
177 162 1.0
824 162 1.0
77 163 -1.0
106 163 -1.0
178 163 1.0
825 163 1.0
77 164 -1.0
107 164 -1.0
179 164 1.0
826 164 1.0
78 165 -1.0
140 165 -1.0
176 165 -0.85
819 165 1.0
78 166 -1.0
141 166 -1.0
177 166 -0.9
820 166 1.0
78 167 -1.0
142 167 -1.0
178 167 -0.85
821 167 1.0
78 168 -1.0
143 168 -1.0
179 168 -0.9
822 168 1.0
79 169 -1.0
108 169 -1.0
180 169 1.0
835 169 1.0
79 170 -1.0
109 170 -1.0
181 170 1.0
836 170 1.0
79 171 -1.0
110 171 -1.0
182 171 1.0
837 171 1.0
79 172 -1.0
111 172 -1.0
183 172 1.0
838 172 1.0
80 173 -1.0
112 173 -1.0
184 173 1.0
839 173 1.0
80 174 -1.0
113 174 -1.0
185 174 1.0
840 174 1.0
80 175 -1.0
114 175 -1.0
186 175 1.0
841 175 1.0
80 176 -1.0
115 176 -1.0
187 176 1.0
842 176 1.0
81 177 -1.0
144 177 -1.0
180 177 -0.75
184 177 -0.75
831 177 1.0
81 178 -1.0
145 178 -1.0
181 178 -0.95
185 178 -0.95
832 178 1.0
81 179 -1.0
146 179 -1.0
182 179 -0.9
186 179 -0.9
833 179 1.0
81 180 -1.0
147 180 -1.0
183 180 -0.95
187 180 -0.95
834 180 1.0
82 181 -1.0
116 181 -1.0
188 181 1.0
847 181 1.0
82 182 -1.0
117 182 -1.0
189 182 1.0
848 182 1.0
82 183 -1.0
118 183 -1.0
190 183 1.0
849 183 1.0
82 184 -1.0
119 184 -1.0
191 184 1.0
850 184 1.0
83 185 -1.0
148 185 -1.0
188 185 -0.8
827 185 1.0
83 186 -1.0
149 186 -1.0
189 186 -0.85
828 186 1.0
83 187 -1.0
150 187 -1.0
190 187 -0.8
829 187 1.0
83 188 -1.0
151 188 -1.0
191 188 -0.85
830 188 1.0
84 189 -1.0
120 189 -1.0
192 189 1.0
851 189 1.0
84 190 -1.0
121 190 -1.0
193 190 1.0
852 190 1.0
84 191 -1.0
122 191 -1.0
194 191 1.0
853 191 1.0
84 192 -1.0
123 192 -1.0
195 192 1.0
854 192 1.0
85 193 -1.0
152 193 -1.0
192 193 -0.85
843 193 1.0
85 194 -1.0
153 194 -1.0
193 194 -0.95
844 194 1.0
85 195 -1.0
154 195 -1.0
194 195 -0.85
845 195 1.0
85 196 -1.0
155 196 -1.0
195 196 -0.95
846 196 1.0
86 197 -1.0
124 197 -1.0
196 197 1.0
859 197 1.0
86 198 -1.0
125 198 -1.0
197 198 1.0
860 198 1.0
86 199 -1.0
126 199 -1.0
198 199 1.0
861 199 1.0
86 200 -1.0
127 200 -1.0
199 200 1.0
862 200 1.0
87 201 -1.0
156 201 -1.0
196 201 -0.8
855 201 1.0
87 202 -1.0
157 202 -1.0
197 202 -0.92
856 202 1.0
87 203 -1.0
158 203 -1.0
198 203 -0.8
857 203 1.0
87 204 -1.0
159 204 -1.0
199 204 -0.92
858 204 1.0
88 205 148.75
128 205 175.0
211 205 35.0
255 205 10.0
360 205 1.0
895 205 1.0
896 205 -1.0
92 206 254.045833333333
132 206 175.0
215 206 35.0
219 206 61.0
259 206 40.0
361 206 1.0
903 206 1.0
904 206 -1.0
96 207 20.4166666666667
100 207 20.4166666666667
136 207 20.8333333333333
223 207 25.0
263 207 15.0
362 207 1.0
911 207 1.0
912 207 -1.0
104 208 18.75
140 208 20.8333333333333
227 208 25.0
267 208 15.0
363 208 1.0
919 208 1.0
920 208 -1.0
108 209 17.8125
112 209 17.8125
144 209 18.75
231 209 25.0
271 209 10.0
364 209 1.0
927 209 1.0
928 209 -1.0
116 210 66.9375
148 210 18.75
235 210 25.0
239 210 24.0
275 210 20.0
365 210 1.0
935 210 1.0
936 210 -1.0
120 211 94.4571428571429
152 211 60.0
243 211 24.0
247 211 30.0
279 211 25.0
366 211 1.0
943 211 1.0
944 211 -1.0
124 212 39.4285714285714
156 212 42.8571428571429
251 212 30.0
283 212 15.0
367 212 1.0
951 212 1.0
952 212 -1.0
200 213 -1.0
211 213 -1.0
255 213 -1.0
747 213 1.0
200 214 -1.0
212 214 -1.0
256 214 -1.0
748 214 1.0
200 215 -1.0
213 215 -1.0
257 215 -1.0
749 215 1.0
200 216 -1.0
214 216 -1.0
258 216 -1.0
750 216 1.0
201 217 -1.0
215 217 -1.0
259 217 -1.0
751 217 1.0
201 218 -1.0
216 218 -1.0
260 218 -1.0
752 218 1.0
201 219 -1.0
217 219 -1.0
261 219 -1.0
753 219 1.0
201 220 -1.0
218 220 -1.0
262 220 -1.0
754 220 1.0
202 221 -1.0
219 221 -1.0
259 221 -1.0
755 221 1.0
202 222 -1.0
220 222 -1.0
260 222 -1.0
756 222 1.0
202 223 -1.0
221 223 -1.0
261 223 -1.0
757 223 1.0
202 224 -1.0
222 224 -1.0
262 224 -1.0
758 224 1.0
203 225 -1.0
223 225 -1.0
263 225 -1.0
759 225 1.0
203 226 -1.0
224 226 -1.0
264 226 -1.0
760 226 1.0
203 227 -1.0
225 227 -1.0
265 227 -1.0
761 227 1.0
203 228 -1.0
226 228 -1.0
266 228 -1.0
762 228 1.0
204 229 -1.0
227 229 -1.0
267 229 -1.0
763 229 1.0
204 230 -1.0
228 230 -1.0
268 230 -1.0
764 230 1.0
204 231 -1.0
229 231 -1.0
269 231 -1.0
765 231 1.0
204 232 -1.0
230 232 -1.0
270 232 -1.0
766 232 1.0
205 233 -1.0
231 233 -1.0
271 233 -1.0
771 233 1.0
205 234 -1.0
232 234 -1.0
272 234 -1.0
772 234 1.0
205 235 -1.0
233 235 -1.0
273 235 -1.0
773 235 1.0
205 236 -1.0
234 236 -1.0
274 236 -1.0
774 236 1.0
206 237 -1.0
235 237 -1.0
275 237 -1.0
767 237 1.0
206 238 -1.0
236 238 -1.0
276 238 -1.0
768 238 1.0
206 239 -1.0
237 239 -1.0
277 239 -1.0
769 239 1.0
206 240 -1.0
238 240 -1.0
278 240 -1.0
770 240 1.0
207 241 -1.0
239 241 -1.0
275 241 -1.0
775 241 1.0
207 242 -1.0
240 242 -1.0
276 242 -1.0
776 242 1.0
207 243 -1.0
241 243 -1.0
277 243 -1.0
777 243 1.0
207 244 -1.0
242 244 -1.0
278 244 -1.0
778 244 1.0
208 245 -1.0
243 245 -1.0
279 245 -1.0
779 245 1.0
208 246 -1.0
244 246 -1.0
280 246 -1.0
780 246 1.0
208 247 -1.0
245 247 -1.0
281 247 -1.0
781 247 1.0
208 248 -1.0
246 248 -1.0
282 248 -1.0
782 248 1.0
209 249 -1.0
247 249 -1.0
279 249 -1.0
787 249 1.0
209 250 -1.0
248 250 -1.0
280 250 -1.0
788 250 1.0
209 251 -1.0
249 251 -1.0
281 251 -1.0
789 251 1.0
209 252 -1.0
250 252 -1.0
282 252 -1.0
790 252 1.0
210 253 -1.0
251 253 -1.0
283 253 -1.0
783 253 1.0
210 254 -1.0
252 254 -1.0
284 254 -1.0
784 254 1.0
210 255 -1.0
253 255 -1.0
285 255 -1.0
785 255 1.0
210 256 -1.0
254 256 -1.0
286 256 -1.0
786 256 1.0
287 257 1.0
359 257 -1.0
739 257 1.0
287 258 -1.0
295 258 -1.0
327 258 1.0
863 258 1.0
287 259 -1.0
296 259 -1.0
328 259 1.0
864 259 1.0
287 260 -1.0
297 260 -1.0
329 260 1.0
865 260 1.0
287 261 -1.0
298 261 -1.0
330 261 1.0
866 261 1.0
288 262 1.0
359 262 -1.0
740 262 1.0
288 263 -1.0
299 263 -1.0
331 263 1.0
867 263 1.0
288 264 -1.0
300 264 -1.0
332 264 1.0
868 264 1.0
288 265 -1.0
301 265 -1.0
333 265 1.0
869 265 1.0
288 266 -1.0
302 266 -1.0
334 266 1.0
870 266 1.0
289 267 1.0
359 267 -1.0
741 267 1.0
289 268 -1.0
303 268 -1.0
335 268 1.0
871 268 1.0
289 269 -1.0
304 269 -1.0
336 269 1.0
872 269 1.0
289 270 -1.0
305 270 -1.0
337 270 1.0
873 270 1.0
289 271 -1.0
306 271 -1.0
338 271 1.0
874 271 1.0
290 272 1.0
359 272 -1.0
742 272 1.0
290 273 -1.0
307 273 -1.0
339 273 1.0
875 273 1.0
290 274 -1.0
308 274 -1.0
340 274 1.0
876 274 1.0
290 275 -1.0
309 275 -1.0
341 275 1.0
877 275 1.0
290 276 -1.0
310 276 -1.0
342 276 1.0
878 276 1.0
291 277 1.0
359 277 -1.0
743 277 1.0
291 278 -1.0
311 278 -1.0
343 278 1.0
879 278 1.0
291 279 -1.0
312 279 -1.0
344 279 1.0
880 279 1.0
291 280 -1.0
313 280 -1.0
345 280 1.0
881 280 1.0
291 281 -1.0
314 281 -1.0
346 281 1.0
882 281 1.0
292 282 1.0
359 282 -1.0
744 282 1.0
292 283 -1.0
315 283 -1.0
347 283 1.0
883 283 1.0
292 284 -1.0
316 284 -1.0
348 284 1.0
884 284 1.0
292 285 -1.0
317 285 -1.0
349 285 1.0
885 285 1.0
292 286 -1.0
318 286 -1.0
350 286 1.0
886 286 1.0
293 287 1.0
359 287 -1.0
745 287 1.0
293 288 -1.0
319 288 -1.0
351 288 1.0
887 288 1.0
293 289 -1.0
320 289 -1.0
352 289 1.0
888 289 1.0
293 290 -1.0
321 290 -1.0
353 290 1.0
889 290 1.0
293 291 -1.0
322 291 -1.0
354 291 1.0
890 291 1.0
294 292 1.0
359 292 -1.0
746 292 1.0
294 293 -1.0
323 293 -1.0
355 293 1.0
891 293 1.0
294 294 -1.0
324 294 -1.0
356 294 1.0
892 294 1.0
294 295 -1.0
325 295 -1.0
357 295 1.0
893 295 1.0
294 296 -1.0
326 296 -1.0
358 296 1.0
894 296 1.0
368 297 -1.0
372 297 1.0
959 297 1.0
960 297 -1.0
369 298 -1.0
436 298 1.0
971 298 1.0
972 298 -1.0
370 299 -1.0
520 299 1.0
989 299 1.0
990 299 -1.0
371 300 -1.0
379 300 -1.0
991 300 1.0
992 300 -1.0
372 301 -1.0
389 301 1.0
961 301 1.0
372 302 -1.0
402 302 1.0
962 302 1.0
373 303 -1.0
390 303 1.0
963 303 1.0
373 304 -1.0
403 304 1.0
964 304 1.0
373 305 1.0
374 305 1.0
965 305 1.0
374 306 -1.0
375 306 1.0
967 306 1.0
375 307 -1.0
411 307 1.0
968 307 1.0
375 308 -1.0
424 308 1.0
969 308 1.0
375 309 -1.0
435 309 1.0
970 309 1.0
376 310 1.0
412 310 1.0
973 310 1.0
376 311 -1.0
451 311 1.0
976 311 1.0
376 312 -1.0
464 312 1.0
977 312 1.0
377 313 1.0
437 313 1.0
975 313 1.0
377 314 -1.0
486 314 1.0
978 314 1.0
377 315 -1.0
495 315 1.0
979 315 1.0
377 316 -1.0
508 316 1.0
980 316 1.0
378 317 1.0
478 317 1.0
983 317 1.0
378 318 -1.0
548 318 1.0
987 318 1.0
378 319 -1.0
567 319 1.0
988 319 1.0
379 320 -1.0
487 320 1.0
984 320 1.0
379 321 1.0
568 321 1.0
993 321 1.0
380 322 1.0
496 322 1.0
985 322 1.0
380 323 -1.0
579 323 1.0
994 323 1.0
380 324 -1.0
588 324 1.0
995 324 1.0
381 325 1.0
509 325 1.0
986 325 1.0
381 326 -1.0
601 326 1.0
996 326 1.0
381 327 -1.0
614 327 1.0
997 327 1.0
381 328 -1.0
627 328 1.0
998 328 1.0
384 329 -1.0
386 329 -1.0
382 330 1.0
385 330 1.0
389 330 -1.0
391 330 -1.0
1008 330 1.0
386 331 -1.0
390 331 -1.0
393 331 -1.0
1012 331 1.0
387 332 1.0
389 332 -1.0
392 332 -1.0
1009 332 1.0
388 333 1.0
390 333 -1.0
394 333 -1.0
1013 333 1.0
397 334 -1.0
399 334 -1.2
395 335 1.0
398 335 1.0
402 335 -1.0
404 335 -1.0
1010 335 1.0
399 336 -1.0
403 336 -1.0
406 336 -1.0
1014 336 1.0
400 337 1.0
402 337 -1.0
405 337 -1.0
1011 337 1.0
401 338 1.0
403 338 -1.0
407 338 -1.0
1015 338 1.0
408 339 -0.75
411 339 -1.0
413 339 -1.0
1016 339 1.0
408 340 1.0
412 340 -1.0
415 340 -1.0
1024 340 1.0
409 341 1.0
411 341 -1.0
414 341 -1.0
1017 341 1.0
410 342 1.0
412 342 -1.0
416 342 -1.0
1025 342 1.0
419 343 -1.0
421 343 -1.5
417 344 1.0
420 344 1.0
424 344 -1.0
426 344 -1.0
1018 344 1.0
421 345 -1.0
425 345 -1.0
428 345 -1.0
1026 345 1.0
422 346 1.0
424 346 -1.0
427 346 -1.0
1019 346 1.0
423 347 1.0
425 347 -1.0
429 347 -1.0
1028 347 1.0
425 348 1.0
477 348 1.0
974 348 1.0
430 349 -1.0
435 349 -1.0
438 349 -1.0
1020 349 1.0
430 350 1.0
431 350 1.0
437 350 -1.0
442 350 -1.0
1030 350 1.0
431 351 -0.5
436 351 -1.0
440 351 -1.0
1022 351 1.0
432 352 1.0
435 352 -1.0
439 352 -1.0
1021 352 1.0
433 353 1.0
436 353 -1.0
441 353 -1.0
1023 353 1.0
434 354 1.0
437 354 -1.0
443 354 -1.0
1031 354 1.0
446 355 -1.0
448 355 -1.25
444 356 1.0
447 356 1.0
451 356 -1.0
453 356 -1.0
1032 356 1.0
448 357 -1.0
452 357 -1.0
455 357 -1.0
1042 357 1.0
449 358 1.0
451 358 -1.0
454 358 -1.0
1033 358 1.0
450 359 1.0
452 359 -1.0
456 359 -1.0
1044 359 1.0
452 360 1.0
519 360 1.0
981 360 1.0
459 361 -1.0
461 361 -0.9
457 362 1.0
460 362 1.0
464 362 -1.0
466 362 -1.0
1034 362 1.0
461 363 -1.0
465 363 -1.0
468 363 -1.0
1046 363 1.0
462 364 1.0
464 364 -1.0
467 364 -1.0
1035 364 1.0
463 365 1.0
465 365 -1.0
469 365 -1.0
1048 365 1.0
465 366 1.0
535 366 1.0
982 366 1.0
472 367 -1.0
474 367 -1.0
470 368 1.0
473 368 1.0
477 368 -1.0
479 368 -1.0
1027 368 1.0
474 369 -1.0
478 369 -1.0
481 369 -1.0
1050 369 1.0
475 370 1.0
477 370 -1.0
480 370 -1.0
1029 370 1.0
476 371 1.0
478 371 -1.0
482 371 -1.0
1051 371 1.0
483 372 -0.9
486 372 -1.0
488 372 -1.0
1036 372 1.0
483 373 1.0
487 373 -1.0
490 373 -1.0
1052 373 1.0
484 374 1.0
486 374 -1.0
489 374 -1.0
1037 374 1.0
485 375 1.0
487 375 -1.0
491 375 -1.0
1053 375 1.0
492 376 -0.6
495 376 -1.0
497 376 -1.0
1038 376 1.0
492 377 1.0
496 377 -1.0
499 377 -1.0
1054 377 1.0
493 378 1.0
495 378 -1.0
498 378 -1.0
1039 378 1.0
494 379 1.0
496 379 -1.0
500 379 -1.0
1055 379 1.0
503 380 -1.0
505 380 -1.1
501 381 1.0
504 381 1.0
508 381 -1.0
510 381 -1.0
1040 381 1.0
505 382 -1.0
509 382 -1.0
512 382 -1.0
1056 382 1.0
506 383 1.0
508 383 -1.0
511 383 -1.0
1041 383 1.0
507 384 1.0
509 384 -1.0
513 384 -1.0
1057 384 1.0
514 385 -0.9
519 385 -1.0
522 385 -1.0
1043 385 1.0
514 386 1.0
515 386 1.0
521 386 -1.0
526 386 -1.0
1076 386 1.0
515 387 -1.0
520 387 -1.0
524 387 -1.0
1062 387 1.0
516 388 1.0
519 388 -1.0
523 388 -1.0
1045 388 1.0
517 389 1.0
520 389 -1.0
525 389 -1.0
1063 389 1.0
518 390 1.0
521 390 -1.0
527 390 -1.0
1077 390 1.0
530 391 -1.0
532 391 -1.0
528 392 1.0
531 392 1.0
535 392 -1.0
537 392 -1.0
1047 392 1.0
532 393 -1.0
536 393 -1.0
539 393 -1.0
1078 393 1.0
533 394 1.0
535 394 -1.0
538 394 -1.0
1049 394 1.0
534 395 1.0
536 395 -1.0
540 395 -1.0
1079 395 1.0
543 396 -1.0
545 396 -0.7
541 397 1.0
544 397 1.0
548 397 -1.0
550 397 -1.0
1058 397 1.0
545 398 -1.0
549 398 -1.0
552 398 -1.0
1080 398 1.0
546 399 1.0
548 399 -1.0
551 399 -1.0
1059 399 1.0
547 400 1.0
549 400 -1.0
553 400 -1.0
1081 400 1.0
556 401 -1.0
558 401 -0.65
554 402 1.0
557 402 1.0
567 402 -1.0
570 402 -1.0
1060 402 1.0
558 403 -1.0
563 403 -1.0
569 403 -1.0
574 403 -1.0
1082 403 1.0
561 404 -1.0
563 404 -0.65
559 405 1.0
562 405 1.0
568 405 -1.0
572 405 -1.0
1064 405 1.0
564 406 1.0
567 406 -1.0
571 406 -1.0
1061 406 1.0
565 407 1.0
568 407 -1.0
573 407 -1.0
1065 407 1.0
566 408 1.0
569 408 -1.0
575 408 -1.0
1083 408 1.0
576 409 -1.0
579 409 -1.0
581 409 -1.0
1066 409 1.0
576 410 1.0
580 410 -1.0
583 410 -1.0
1084 410 1.0
577 411 1.0
579 411 -1.0
582 411 -1.0
1067 411 1.0
578 412 1.0
580 412 -1.0
584 412 -1.0
1085 412 1.0
585 413 -1.0
588 413 -1.0
590 413 -1.0
1068 413 1.0
585 414 1.0
589 414 -1.0
592 414 -1.0
1086 414 1.0
586 415 1.0
588 415 -1.0
591 415 -1.0
1069 415 1.0
587 416 1.0
589 416 -1.0
593 416 -1.0
1087 416 1.0
596 417 -1.0
598 417 -0.75
594 418 1.0
597 418 1.0
601 418 -1.0
603 418 -1.0
1070 418 1.0
598 419 -1.0
602 419 -1.0
605 419 -1.0
1088 419 1.0
599 420 1.0
601 420 -1.0
604 420 -1.0
1071 420 1.0
600 421 1.0
602 421 -1.0
606 421 -1.0
1089 421 1.0
609 422 -1.0
611 422 -0.8
607 423 1.0
610 423 1.0
614 423 -1.0
616 423 -1.0
1072 423 1.0
611 424 -1.0
615 424 -1.0
618 424 -1.0
1090 424 1.0
612 425 1.0
614 425 -1.0
617 425 -1.0
1073 425 1.0
613 426 1.0
615 426 -1.0
619 426 -1.0
1091 426 1.0
622 427 -1.0
624 427 -0.85
620 428 1.0
623 428 1.0
627 428 -1.0
629 428 -1.0
1074 428 1.0
624 429 -1.0
628 429 -1.0
631 429 -1.0
1092 429 1.0
625 430 1.0
627 430 -1.0
630 430 -1.0
1075 430 1.0
626 431 1.0
628 431 -1.0
632 431 -1.0
1093 431 1.0

BCOORD
120
36 -0.4
37 -0.3
38 -0.2
39 -0.5
40 -0.2
41 -0.3
42 35.0
43 36.0
44 25.0
45 24.0
46 30.0
359 4000.0
360 -1.0
361 -1.0
362 -1.0
363 -1.0
364 -1.0
365 -1.0
366 -1.0
367 -1.0
392 10.0
394 2.39789527279837
405 10.0
407 2.87747432735804
414 2.87747432735804
416 2.15810574551853
427 2.87747432735804
429 2.03277599268042
439 2.87747432735804
441 7.0
443 3.5
454 2.15810574551853
456 1.43746550029693
467 2.15810574551853
469 1.03497516021379
480 2.03277599268042
482 1.10947836929589
489 3.5
491 3.15
498 3.5
500 2.1
511 3.5
513 1.6544851364539
523 1.43746550029693
525 5.0
527 5.0
538 1.03497516021379
540 0.710483612536911
551 1.10947836929589
553 0.522508489006913
571 1.10947836929589
573 8.15
575 1.43894002153683
582 2.1
584 2.1
591 2.1
593 2.1
604 1.6544851364539
606 0.732188035236726
617 1.6544851364539
619 0.781000570919175
630 1.6544851364539
632 0.829813106601623
633 -1.0
896 1.0
898 1.0
900 1.0
902 1.0
904 1.0
906 1.0
908 1.0
910 1.0
912 1.0
914 1.0
916 1.0
918 1.0
920 1.0
922 1.0
924 1.0
926 1.0
928 1.0
930 1.0
932 1.0
934 1.0
936 1.0
938 1.0
940 1.0
942 1.0
944 1.0
946 1.0
948 1.0
950 1.0
952 1.0
954 1.0
956 1.0
958 1.0
960 10.0
972 7.0
990 5.0
992 5.0
1095 1.0
1097 1.0
1099 1.0
1101 1.0
1103 1.0
1105 1.0
1107 1.0
1109 1.0
1111 1.0
1113 1.0
1115 1.0
1117 1.0
1119 1.0
1121 1.0
1123 1.0
1125 1.0
1127 1.0
1129 1.0
1131 1.0
1133 1.0
